RT is False
Default write of storage_offers_DA.csv just to have a file (but constraint should be inactive)
Reading model...
...model read.
creating competitive generators file...
...competitive generators recorded.
Loading data...
.. day-ahead data with real-time VRE data read.
Compiling instance...
...instance created.
Creating Offer Mitigation (model will solve as dispatch if TRUE)...
Solving...

Welcome to IBM(R) ILOG(R) CPLEX(R) Interactive Optimizer 12.8.0.0
  with Simplex, Mixed Integer & Barrier Optimizers
5725-A06 5725-A29 5724-Y48 5724-Y49 5724-Y54 5724-Y55 5655-Y21
Copyright IBM Corp. 1988, 2017.  All Rights Reserved.

Type 'help' for a list of available commands.
Type 'help' followed by a command name for more
information on commands.

CPLEX> Logfile 'cplex.log' closed.
Logfile 'C:\Users\llavi\Desktop\test919\logs\tmp1ep5x4it.cplex.log' open.
CPLEX> New value for parallel optimization mode: -1
CPLEX> New value for mixed integer optimality gap tolerance: 0.01
CPLEX> New value for integrality tolerance: 1e-09
CPLEX> New value for feasibility tolerance: 0.01
CPLEX> New value for deterministic time limit in ticks: 75000
CPLEX> Problem 'C:\Users\llavi\Desktop\test919\logs\tmphs0fngzf.pyomo.lp' read.
Read time = 0.06 sec. (3.03 ticks)
CPLEX> Problem name         : C:\Users\llavi\Desktop\test919\logs\tmphs0fngzf.pyomo.lp
Objective sense      : Minimize
Variables            :   26465  [Nneg: 1,  Box: 22000,  Free: 4464]
Objective nonzeros   :    2496
Linear constraints   :   27515  [Less: 14006,  Greater: 4416,  Equal: 9093]
  Nonzeros           :   89171
  RHS nonzeros       :   12271

Variables            : Min LB: -5000.000        Max UB: 1000000.       
Objective nonzeros   : Min   : 15.73158         Max   : 124.0997       
Linear constraints   :
  Nonzeros           : Min   : 0.8500000        Max   : 3000.000       
  RHS nonzeros       : Min   : 0.2833333        Max   : 5000.000       
CPLEX> CPXPARAM_Simplex_Tolerances_Feasibility          0.01
CPXPARAM_Parallel                                -1
CPXPARAM_DetTimeLimit                            75000
CPXPARAM_MIP_Tolerances_MIPGap                   0.01
CPXPARAM_MIP_Tolerances_Integrality              1.0000000000000001e-09
Parallel mode: opportunistic, using up to 4 threads for concurrent optimization.
Tried aggregator 1 time.
LP Presolve eliminated 21401 rows and 15895 columns.
Aggregator did 725 substitutions.
Reduced LP has 5389 rows, 9845 columns, and 31758 nonzeros.
Presolve time = 0.05 sec. (22.47 ticks)

Iteration log . . .
Iteration:     1   Dual objective     =             0.000000
Perturbation started.
Iteration:   101   Dual objective     =             0.000000
Iteration:   378   Dual objective     =             1.496780
Iteration:   644   Dual objective     =             2.035949
Iteration:   963   Dual objective     =             2.179815
Iteration:  1162   Dual objective     =             2.302842
Iteration:  1516   Dual objective     =             2.363944
Iteration:  1823   Dual objective     =             2.394265
Iteration:  2114   Dual objective     =             2.418222
Iteration:  2413   Dual objective     =             2.431716
Iteration:  2707   Dual objective     =          5705.176315
Iteration:  3051   Dual objective     =         28339.952777
Iteration:  3429   Dual objective     =         32919.311299
Iteration:  3774   Dual objective     =         57001.033319
Iteration:  4154   Dual objective     =         72152.101481
Removing perturbation.

Dual simplex solved model.


Dual simplex - Optimal:  Objective =  7.7821309390e+04
Solution time =    0.20 sec.  Iterations = 4605 (0)
Deterministic time = 97.08 ticks  (478.25 ticks/sec)

CPLEX> Solution written to file 'C:\Users\llavi\Desktop\test919\logs\tmptalwuws3.cplex.sol'.
CPLEX> Exporting results... 
...storage offer mitigation file created
Converting model to MPEC...
...converted
NOTE: initial MIP solve with only storage competitive to get feasible solution
Solving...

Welcome to IBM(R) ILOG(R) CPLEX(R) Interactive Optimizer 12.8.0.0
  with Simplex, Mixed Integer & Barrier Optimizers
5725-A06 5725-A29 5724-Y48 5724-Y49 5724-Y54 5724-Y55 5655-Y21
Copyright IBM Corp. 1988, 2017.  All Rights Reserved.

Type 'help' for a list of available commands.
Type 'help' followed by a command name for more
information on commands.

CPLEX> Logfile 'cplex.log' closed.
Logfile 'C:\Users\llavi\Desktop\test919\logs\tmp9we_jn_i.cplex.log' open.
CPLEX> New value for parallel optimization mode: -1
CPLEX> New value for mixed integer optimality gap tolerance: 0.01
CPLEX> New value for integrality tolerance: 1e-09
CPLEX> New value for feasibility tolerance: 0.01
CPLEX> New value for deterministic time limit in ticks: 75000
CPLEX> Problem 'C:\Users\llavi\Desktop\test919\logs\tmpg9yp3_eu.pyomo.lp' read.
Read time = 0.26 sec. (13.96 ticks)
CPLEX> Problem name         : C:\Users\llavi\Desktop\test919\logs\tmpg9yp3_eu.pyomo.lp
Objective sense      : Maximize
Variables            :   53805  [Nneg: 1,  Box: 22000,  Free: 4464,
                                 Binary: 27340]
Objective nonzeros   :    9078
Linear constraints   :  123205  [Less: 41346,  Greater: 59096,  Equal: 22763]
  Nonzeros           :  291705
  RHS nonzeros       :   67423

Variables            : Min LB: -5000.000        Max UB: 1000000.       
Objective nonzeros   : Min   : 0.2833333        Max   : 2500.000       
Linear constraints   :
  Nonzeros           : Min   : 0.2833333        Max   : 1000000.       
  RHS nonzeros       : Min   : 0.2833333        Max   : 1000000.       
CPLEX> CPXPARAM_Simplex_Tolerances_Feasibility          0.01
CPXPARAM_Parallel                                -1
CPXPARAM_DetTimeLimit                            75000
CPXPARAM_MIP_Tolerances_MIPGap                   0.01
CPXPARAM_MIP_Tolerances_Integrality              1.0000000000000001e-09
Tried aggregator 3 times.
MIP Presolve eliminated 88661 rows and 19009 columns.
MIP Presolve added 3354 rows and 0 columns.
MIP Presolve modified 23878 coefficients.
Aggregator did 12967 substitutions.
Reduced MIP has 24931 rows, 21273 columns, and 71073 nonzeros.
Reduced MIP has 8421 binaries, 0 generals, 0 SOSs, and 0 indicators.
Presolve time = 0.25 sec. (165.30 ticks)
Probing fixed 394 vars, tightened 2880 bounds.
Probing time = 3.03 sec. (882.46 ticks)
Tried aggregator 2 times.
MIP Presolve eliminated 891 rows and 791 columns.
MIP Presolve modified 2235 coefficients.
Aggregator did 40 substitutions.
Reduced MIP has 24000 rows, 20442 columns, and 68375 nonzeros.
Reduced MIP has 8026 binaries, 0 generals, 0 SOSs, and 0 indicators.
Presolve time = 0.13 sec. (55.79 ticks)
Probing time = 0.06 sec. (15.66 ticks)
Clique table members: 6418.
MIP emphasis: balance optimality and feasibility.
MIP search method: dynamic search.
Parallel mode: opportunistic, using up to 4 threads.
Root relaxation solution time = 0.45 sec. (443.83 ticks)

        Nodes                                         Cuts/
   Node  Left     Objective  IInf  Best Integer    Best Bound    ItCnt     Gap

      0     0        0.0000   670                      0.0000     2939         
*     0+    0                            0.0000        0.0000             0.00%
      0     0        cutoff              0.0000        0.0000     2939    0.00%
Elapsed time = 5.14 sec. (1962.43 ticks, tree = 0.01 MB, solutions = 1)

Root node processing (before b&c):
  Real time             =    5.16 sec. (1964.70 ticks)
Parallel b&c, 4 threads:
  Real time             =    0.00 sec. (0.00 ticks)
  Sync time (average)   =    0.00 sec.
  Wait time (average)   =    0.00 sec.
                          ------------
Total (root+branch&cut) =    5.16 sec. (1964.70 ticks)

Solution pool: 1 solution saved.

MIP - Integer optimal solution:  Objective =  2.8994691093e-09
Solution time =    5.16 sec.  Iterations = 2939  Nodes = 0
Deterministic time = 1964.85 ticks  (381.08 ticks/sec)

CPLEX> Incumbent solution written to file 'C:\Users\llavi\Desktop\test919\logs\tmpq7q6ovtv.cplex.sol'.
CPLEX> NOTE: no warmstart specified for MIP iteration, default behavior is true
NOTE: resolving with all competitive generators using storage-only solution to warmstart
Solving...

Welcome to IBM(R) ILOG(R) CPLEX(R) Interactive Optimizer 12.8.0.0
  with Simplex, Mixed Integer & Barrier Optimizers
5725-A06 5725-A29 5724-Y48 5724-Y49 5724-Y54 5724-Y55 5655-Y21
Copyright IBM Corp. 1988, 2017.  All Rights Reserved.

Type 'help' for a list of available commands.
Type 'help' followed by a command name for more
information on commands.

CPLEX> Logfile 'cplex.log' closed.
Logfile 'C:\Users\llavi\Desktop\test919\logs\tmpdykbhnds.cplex.log' open.
CPLEX> New value for parallel optimization mode: -1
CPLEX> New value for mixed integer optimality gap tolerance: 0.01
CPLEX> New value for integrality tolerance: 1e-09
CPLEX> New value for feasibility tolerance: 0.01
CPLEX> New value for deterministic time limit in ticks: 75000
CPLEX> Problem 'C:\Users\llavi\Desktop\test919\logs\tmpf8gfpkwa.pyomo.lp' read.
Read time = 0.28 sec. (13.98 ticks)
CPLEX> MIP start file 'C:\Users\llavi\Desktop\test919\logs\tmpk7hag_kf.cplex.mst' read.
CPLEX> Problem name         : C:\Users\llavi\Desktop\test919\logs\tmpf8gfpkwa.pyomo.lp
Objective sense      : Maximize
Variables            :   54525  [Nneg: 1,  Box: 22720,  Free: 4464,
                                 Binary: 27340]
Objective nonzeros   :    9774
Linear constraints   :  123205  [Less: 41346,  Greater: 59096,  Equal: 22763]
  Nonzeros           :  291705
  RHS nonzeros       :   67423

Variables            : Min LB: -5000.000        Max UB: 1000000.       
Objective nonzeros   : Min   : 0.2833333        Max   : 2500.000       
Linear constraints   :
  Nonzeros           : Min   : 0.2833333        Max   : 1000000.       
  RHS nonzeros       : Min   : 0.2833333        Max   : 1000000.       
CPLEX> CPXPARAM_Simplex_Tolerances_Feasibility          0.01
CPXPARAM_Parallel                                -1
CPXPARAM_DetTimeLimit                            75000
CPXPARAM_MIP_Tolerances_MIPGap                   0.01
CPXPARAM_MIP_Tolerances_Integrality              1.0000000000000001e-09
Warning:  No solution found from 1 MIP starts.
Retaining values of one MIP start for possible repair.
Tried aggregator 3 times.
MIP Presolve eliminated 88661 rows and 19729 columns.
MIP Presolve added 3354 rows and 0 columns.
MIP Presolve modified 23878 coefficients.
Aggregator did 12967 substitutions.
Reduced MIP has 24931 rows, 21273 columns, and 71073 nonzeros.
Reduced MIP has 8421 binaries, 0 generals, 0 SOSs, and 0 indicators.
Presolve time = 0.30 sec. (165.66 ticks)
Probing fixed 394 vars, tightened 2880 bounds.
Probing time = 3.02 sec. (882.46 ticks)
Tried aggregator 2 times.
MIP Presolve eliminated 891 rows and 791 columns.
MIP Presolve modified 2235 coefficients.
Aggregator did 40 substitutions.
Reduced MIP has 24000 rows, 20442 columns, and 68375 nonzeros.
Reduced MIP has 8026 binaries, 0 generals, 0 SOSs, and 0 indicators.
Presolve time = 0.14 sec. (55.81 ticks)
Probing time = 0.05 sec. (15.66 ticks)
Clique table members: 6418.
MIP emphasis: balance optimality and feasibility.
MIP search method: dynamic search.
Parallel mode: opportunistic, using up to 4 threads.
Root relaxation solution time = 0.41 sec. (211.49 ticks)

        Nodes                                         Cuts/
   Node  Left     Objective  IInf  Best Integer    Best Bound    ItCnt     Gap

      0     0   141721.8144  1803                 141721.8144     2973         
      0     0   136058.5145   692                   Cuts: 752     3407         
      0     0   135278.5939   599                   Cuts: 395     3568         
      0     0   135126.9087   570                   Cuts: 200     3660         
      0     0   135054.2956   559                   Cuts: 118     3750         
      0     0   135054.2956   521                   Cuts: 126     3794         
      0     0   135054.2956   506                    Cuts: 45     3810         
      0     0   135054.2956   499                    Cuts: 49     3820         
      0     0   135054.2956   490                    Cuts: 30     3828         
      0     0   135054.2956   490                    Cuts: 28     3830         
      0     0   135054.2956   489                    Cuts: 25     3832         
Repair heuristic found nothing.
      0     2   135054.2956   487                 129930.2386     3833         
Elapsed time = 38.91 sec. (14549.87 ticks, tree = 0.03 MB, solutions = 0)
     51    23    infeasible                       129930.2386     4428         
    115    69    74504.7746   377                 129930.2386     5801         
    181   125    56509.3569   366                 129930.2386     6693         
    253   186    infeasible                       129930.2386     7547         
    331   231    49455.0877   356                 129930.2386     8118         
    394   286    12272.3932   340                 129930.2386     9066         
    483   373    25053.8926   288                 129930.2386     9661         
    563   394    71273.8374   389                 129930.2386    10302         
    670   556     4057.5813   265                 129930.2386    10512         
   1196   918    30943.9418   186                 129930.2386    11498         
Elapsed time = 46.05 sec. (17703.51 ticks, tree = 9.44 MB, solutions = 0)
   1502  1190    82456.9942   366                 129930.2386    15808         
   1773  1236    77682.7344   365                 129930.2386    20093         
   2052  1449    53892.7472   361                 129930.2386    23616         
   2363  1728    45438.7312   245                 129930.2386    26438         
   2502  1933    80183.0729   298                  91267.7316    36572         
   2655   120    42097.8734   216                  88570.3106    39891         
   2851   215    infeasible                        81382.9038    40829         
   3079   518    17835.0361   238                  80643.2791    46772         
   3340   700   -57188.8536   171                  80643.2791    49451         
   3414   717    43705.0200   252                  80244.6943    50134         
Elapsed time = 106.50 sec. (39280.17 ticks, tree = 17.41 MB, solutions = 0)
   3609   920   -85358.7662   142                  80244.6943    52951         
   3928  1156   -85358.7662    49                  80244.6943    55251         
*  4056+ 1268                       -85384.5960    80244.6943           193.98%
   4338  1529   -37855.7493   170   -85384.5960    74747.5283    63425  187.54%
   4663  1742    16640.6167   223   -85384.5960    74747.5283    66752  187.54%
   4925  1906    36793.0161   220   -85384.5960    73402.8776    70429  185.97%
   4972  2040        cutoff         -85384.5960    72818.5638    80718  185.28%
   5045    38    43619.9838   212   -85384.5960    72818.5638    81609  185.28%
   5152   137    24669.3908   153   -85384.5960    72818.5638    83406  185.28%
   5310   174   -18850.2554   120   -85384.5960    72818.5638    83940  185.28%
Elapsed time = 144.44 sec. (53226.79 ticks, tree = 2.08 MB, solutions = 1)
   5426   319    13326.1887    91   -85384.5960    72818.5638    85793  185.28%
   5561   522    21305.6954    56   -85384.5960    72818.5638    89114  185.28%
*  5681   560      integral     0    21201.2460    72818.5638    89197  243.46%
   5732   370    25997.2463   165    21201.2460    72818.5638    90336  243.46%
   5871   442    62036.5694   182    21201.2460    72818.5638    92878  243.46%
   6039   492    29428.1946   107    21201.2460    66100.4854    94102  211.78%
   6209   679    27792.2151   143    21201.2460    63421.4182   100872  199.14%
   6378   794        cutoff          21201.2460    62887.9837   103367  196.62%
   6581   923    29627.2495   179    21201.2460    62036.5694   106750  192.61%
   6737  1031    43105.0998   120    21201.2460    61930.0883   108629  192.11%
   6934  1227    43788.2639   119    21201.2460    60261.4932   112945  184.24%
Elapsed time = 168.42 sec. (62799.24 ticks, tree = 9.53 MB, solutions = 2)
   7120  1410    24970.7032    18    21201.2460    59799.5761   116447  182.06%
   7261  1513    30501.3261   128    21201.2460    58570.4302   118854  176.26%
   7431  1544    29829.8944   143    21201.2460    58029.4489   119783  173.71%
   7593  1603    22099.2894   180    21201.2460    57847.9500   121043  172.85%
   7768  1788    23801.3379    88    21201.2460    56058.1446   127694  164.41%
   7933  1799    45443.0313   143    21201.2460    55827.5030   128034  163.32%
   8084  1968    22259.7542    81    21201.2460    55709.8240   133913  162.77%
   8254  2054    22862.0998   127    21201.2460    53129.0148   138010  150.59%
   8410  2121    43148.3692   135    21201.2460    53129.0148   141055  150.59%
   8623  2259    42598.6414   132    21201.2460    52237.1927   146871  146.39%
Elapsed time = 192.91 sec. (72378.73 ticks, tree = 18.95 MB, solutions = 2)
   8834  2342    33908.8643   133    21201.2460    52059.0929   148545  145.55%
   8989  2524    26316.4231   168    21201.2460    51474.5098   154224  142.79%

Clique cuts applied:  1
Cover cuts applied:  13
Implied bound cuts applied:  16
Flow cuts applied:  498
Mixed integer rounding cuts applied:  71
Zero-half cuts applied:  2
Gomory fractional cuts applied:  89

Root node processing (before b&c):
  Real time             =   38.59 sec. (14505.15 ticks)
Parallel b&c, 4 threads:
  Real time             =  159.33 sec. (60503.99 ticks)
  Sync time (average)   =    1.17 sec.
  Wait time (average)   =    0.03 sec.
                          ------------
Total (root+branch&cut) =  197.92 sec. (75009.13 ticks)

Solution pool: 2 solutions saved.

MIP - Deterministic time limit exceeded, integer feasible:  Objective =  2.1201245964e+04
Current MIP best bound =  5.0636214428e+04 (gap = 29435, 138.84%)
Solution time =  197.92 sec.  Iterations = 159350  Nodes = 9045 (2558)
Deterministic time = 75009.29 ticks  (378.98 ticks/sec)

CPLEX> Incumbent solution written to file 'C:\Users\llavi\Desktop\test919\logs\tmpade66gbu.cplex.sol'.
CPLEX> Exporting results... 
